c Vstupni promenne (CNF index -> nazev):
c   1 -> x1
c   2 -> x4
c   3 -> x3
c   4 -> x9
c   5 -> x7
c   6 -> x5
c   7 -> x6
c Pomocne promenne:
c   8, 9, 10, 11, 12, 13, 14, 15, 16, 17, 18, 19, 20, 21, 22
c Koren: 22
c
p cnf 22 46
-8 1 -2 0
8 -1 0
8 2 0
-9 3 4 0
9 -3 0
9 -4 0
-10 8 0
-10 9 0
10 -8 -9 0
-11 5 1 0
11 -5 0
11 -1 0
-12 2 4 0
12 -2 0
12 -4 0
-13 11 0
-13 12 0
13 -11 -12 0
-14 10 13 0
14 -10 0
14 -13 0
-15 4 4 0
15 -4 0
15 -4 0
-16 -2 -6 0
16 2 0
16 6 0
-17 15 0
-17 16 0
17 -15 -16 0
-18 3 -7 0
18 -3 0
18 7 0
-19 -3 7 0
19 3 0
19 -7 0
-20 18 0
-20 19 0
20 -18 -19 0
-21 17 20 0
21 -17 0
21 -20 0
-22 14 0
-22 21 0
22 -14 -21 0
22 0
